
Gurobi 7.5.2 (linux64) logging started Sat Jul  7 16:00:19 2018

Changed value of parameter LogFile to result/ilp/simNo_7-n_100-m_40-s_4-minVAF_0.05-cov_10000-k_2-fn_0.10-fp_0.0001-na_0.15.ILP.gurobiSolverLog
   Prev: gurobi.log  Default: 
Changed value of parameter TimeLimit to 86400.0
   Prev: 1e+100  Min: 0.0  Max: 1e+100  Default: 1e+100
Optimize a model with 639293 rows, 10765 columns and 1940420 nonzeros
Variable types: 0 continuous, 10765 integer (10765 binary)
Coefficient statistics:
  Matrix range     [4e-04, 4e+00]
  Objective range  [3e-01, 9e+00]
  Bounds range     [1e+00, 1e+00]
  RHS range        [3e-01, 2e+00]
Found heuristic solution: objective -17606.18500
Presolve removed 129683 rows and 1008 columns (presolve time = 5s) ...
Presolve removed 130246 rows and 1008 columns (presolve time = 11s) ...
Presolve removed 186546 rows and 1571 columns (presolve time = 16s) ...
Presolve removed 186546 rows and 1571 columns
Presolve time: 16.99s
Presolved: 452747 rows, 9194 columns, 1360705 nonzeros
Variable types: 0 continuous, 9194 integer (9194 binary)
Presolved: 9194 rows, 461941 columns, 1369899 nonzeros

Presolve removed 9194 rows and 461941 columns

Root simplex log...

Iteration    Objective       Primal Inf.    Dual Inf.      Time
       0    1.5690731e+01   0.000000e+00   8.585800e+04     21s
   24664   -2.5193830e+02   0.000000e+00   4.749242e+04     25s
   42764   -3.1098415e+02   0.000000e+00   0.000000e+00     30s
   42764   -3.1098415e+02   0.000000e+00   0.000000e+00     30s

Root relaxation: objective -3.109841e+02, 42764 iterations, 11.69 seconds
Total elapsed time = 63.71s
Total elapsed time = 108.69s
Total elapsed time = 146.89s

    Nodes    |    Current Node    |     Objective Bounds      |     Work
 Expl Unexpl |  Obj  Depth IntInf | Incumbent    BestBd   Gap | It/Node Time

     0     0 -310.98415    0 1219 -17606.185 -310.98415  98.2%     -  160s
H    0     0                    -412.5420931 -310.98415  24.6%     -  163s
H    0     0                    -402.7883701 -310.98415  22.8%     -  164s
H    0     0                    -381.4657033 -310.98415  18.5%     -  164s
     0     0 -315.24868    0 1211 -381.46570 -315.24868  17.4%     -  212s
H    0     0                    -362.2753031 -315.24868  13.0%     -  222s
     0     0 -315.39480    0 1343 -362.27530 -315.39480  12.9%     -  227s
     0     0 -315.58045    0 1328 -362.27530 -315.58045  12.9%     -  241s
     0     0 -315.73785    0 1342 -362.27530 -315.73785  12.8%     -  253s
     0     0 -320.10020    0 1353 -362.27530 -320.10020  11.6%     -  767s
H    0     0                    -353.7462364 -320.10020  9.51%     -  771s
     0     0 -320.39028    0 1342 -353.74624 -320.39028  9.43%     -  799s
     0     0 -320.41994    0 1363 -353.74624 -320.41994  9.42%     -  808s
     0     0 -320.49513    0 1622 -353.74624 -320.49513  9.40%     -  842s
     0     0 -320.49513    0 1621 -353.74624 -320.49513  9.40%     -  846s
     0     0 -322.29942    0 1682 -353.74624 -322.29942  8.89%     - 1052s
     0     0 -322.40130    0 1417 -353.74624 -322.40130  8.86%     - 1079s
     0     0 -323.29875    0 1677 -353.74624 -323.29875  8.61%     - 1096s
     0     0 -323.30037    0 1681 -353.74624 -323.30037  8.61%     - 1101s
     0     0 -325.59267    0 1761 -353.74624 -325.59267  7.96%     - 3008s
     0     0 -326.00238    0 1695 -353.74624 -326.00238  7.84%     - 3054s
     0     0 -326.00238    0 1698 -353.74624 -326.00238  7.84%     - 3060s
     0     0 -330.70162    0 1502 -353.74624 -330.70162  6.51%     - 11180s
     0     0 -330.70690    0 1489 -353.74624 -330.70690  6.51%     - 11198s
     0     0 -330.70690    0 1487 -353.74624 -330.70690  6.51%     - 11202s
     0     0 -330.86665    0 1470 -353.74624 -330.86665  6.47%     - 11224s
     0     0 -330.87203    0 1429 -353.74624 -330.87203  6.47%     - 11242s
     0     0 -330.87520    0 1480 -353.74624 -330.87520  6.47%     - 11254s
     0     0 -330.87520    0 1485 -353.74624 -330.87520  6.47%     - 11259s
     0     0 -333.33434    0 1350 -353.74624 -333.33434  5.77%     - 13063s
     0     0 -333.41678    0 1328 -353.74624 -333.41678  5.75%     - 13109s
     0     0 -333.47413    0 1446 -353.74624 -333.47413  5.73%     - 13146s
     0     0 -333.47413    0 1449 -353.74624 -333.47413  5.73%     - 13150s
     0     0 -334.69838    0 1463 -353.74624 -334.69838  5.38%     - 13784s
H    0     0                    -351.6139697 -334.69838  4.81%     - 13794s
     0     0 -334.76308    0 1449 -351.61397 -334.76308  4.79%     - 13810s
     0     0 -334.77309    0 1435 -351.61397 -334.77309  4.79%     - 13817s
     0     0 -334.77309    0 1434 -351.61397 -334.77309  4.79%     - 13820s
     0     0 -336.46634    0 1360 -351.61397 -336.46634  4.31%     - 14527s
     0     0 -336.51959    0 1367 -351.61397 -336.51959  4.29%     - 14573s
     0     0 -336.51959    0 1365 -351.61397 -336.51959  4.29%     - 14575s
     0     0 -337.01670    0 1192 -351.61397 -337.01670  4.15%     - 15595s
H    0     0                    -351.2630927 -337.01670  4.06%     - 15599s
     0     0 -337.40933    0 1427 -351.26309 -337.40933  3.94%     - 15982s
     0     0 -337.58495    0 1427 -351.26309 -337.58495  3.89%     - 16087s
     0     0 -337.58495    0 1428 -351.26309 -337.58495  3.89%     - 16093s
     0     0 -338.34936    0 1321 -351.26309 -338.34936  3.68%     - 17066s
     0     0 -338.62550    0 1319 -351.26309 -338.62550  3.60%     - 17215s
     0     0 -338.62664    0 1316 -351.26309 -338.62664  3.60%     - 17221s
     0     0 -338.65493    0 1318 -351.26309 -338.65493  3.59%     - 17261s
     0     0 -338.65493    0 1306 -351.26309 -338.65493  3.59%     - 17266s
     0     0 -340.31541    0 1406 -351.26309 -340.31541  3.12%     - 19597s
     0     0 -340.33749    0 1414 -351.26309 -340.33749  3.11%     - 19610s
     0     0 -340.34587    0 1417 -351.26309 -340.34587  3.11%     - 19619s
     0     0 -340.34587    0 1384 -351.26309 -340.34587  3.11%     - 19621s
     0     0 -341.34601    0 1416 -351.26309 -341.34601  2.82%     - 21303s
     0     0 -341.34601    0 1413 -351.26309 -341.34601  2.82%     - 21310s
     0     0 -341.76072    0 1389 -351.26309 -341.76072  2.71%     - 21385s
     0     0 -341.76072    0 1384 -351.26309 -341.76072  2.71%     - 21396s
     0     0 -342.70162    0 1251 -351.26309 -342.70162  2.44%     - 22115s
     0     0 -342.84969    0 1235 -351.26309 -342.84969  2.40%     - 22158s
     0     0 -342.87515    0 1307 -351.26309 -342.87515  2.39%     - 22174s
     0     0 -342.91592    0 1312 -351.26309 -342.91592  2.38%     - 22192s
     0     0 -342.92649    0 1317 -351.26309 -342.92649  2.37%     - 22197s
     0     0 -342.92649    0 1314 -351.26309 -342.92649  2.37%     - 22200s
     0     0 -342.92649    0 1237 -351.26309 -342.92649  2.37%     - 22637s
     0     0 -342.92649    0 1182 -351.26309 -342.92649  2.37%     - 22694s
     0     0 -342.92649    0 1218 -351.26309 -342.92649  2.37%     - 22699s
     0     0 -343.14584    0 1224 -351.26309 -343.14584  2.31%     - 22703s
     0     0 -343.26430    0 1236 -351.26309 -343.26430  2.28%     - 22703s
     0     0 -343.26430    0 1226 -351.26309 -343.26430  2.28%     - 22704s
     0     0 -343.91753    0  794 -351.26309 -343.91753  2.09%     - 22714s
     0     0 -343.91753    0 1126 -351.26309 -343.91753  2.09%     - 22723s
     0     0 -343.91753    0 1133 -351.26309 -343.91753  2.09%     - 22725s
     0     0 -343.91753    0 1079 -351.26309 -343.91753  2.09%     - 22726s
     0     0 -343.91753    0  857 -351.26309 -343.91753  2.09%     - 22726s
     0     0 -343.91753    0  852 -351.26309 -343.91753  2.09%     - 22727s
     0     0 -346.72143    0  939 -351.26309 -346.72143  1.29%     - 22728s
     0     0 -346.74219    0  951 -351.26309 -346.74219  1.29%     - 22728s
     0     0 -346.74219    0  946 -351.26309 -346.74219  1.29%     - 22728s
     0     0 -346.74219    0  890 -351.26309 -346.74219  1.29%     - 22729s
     0     0 -346.82005    0  871 -351.26309 -346.82005  1.26%     - 22729s
     0     0 -346.82005    0  872 -351.26309 -346.82005  1.26%     - 22730s
     0     0 -346.90913    0  674 -351.26309 -346.90913  1.24%     - 22735s
H    0     0                    -349.1308260 -346.90913  0.64%     - 22735s
     0     0 -346.90913    0  674 -349.13083 -346.90913  0.64%     - 22735s
     0     0 -346.90913    0  678 -349.13083 -346.90913  0.64%     - 22736s
     0     0 -346.90913    0  684 -349.13083 -346.90913  0.64%     - 22736s
     0     0 -346.90913    0  677 -349.13083 -346.90913  0.64%     - 22737s
     0     0 -346.90913    0  676 -349.13083 -346.90913  0.64%     - 22737s
     0     0 -346.90913    0  679 -349.13083 -346.90913  0.64%     - 22739s
     0     0 -346.91406    0  680 -349.13083 -346.91406  0.63%     - 22747s
     0     0 -346.91406    0  677 -349.13083 -346.91406  0.63%     - 22749s
     0     2 -347.23548    0  674 -349.13083 -347.23548  0.54%     - 22750s

Cutting planes:
  Gomory: 6
  Implied bound: 12
  MIR: 1
  Zero half: 63

Explored 9 nodes (981071 simplex iterations) in 22751.53 seconds
Thread count was 1 (of 80 available processors)

Solution count 10: -349.131 -351.263 -351.263 ... -17606.2

Optimal solution found (tolerance 1.00e-04)
Best objective -3.491308259957e+02, best bound -3.491308259957e+02, gap 0.0000%
